53934
41 13 686
13 51 644
51 37 590
37 5 467
5 35 323
35 24 296
24 32 1089
32 44 676
44 8 383
8 38 368
38 50 1180
50 20 763
20 7 846
7 40 1176
40 43 1279
43 3 1096
3 6 385
6 28 404
28 55 487
55 26 397
26 54 967
54 34 401
34 47 702
47 30 944
30 4 380
4 18 606
18 12 768
12 9 723
9 14 471
14 2 433
2 42 1722
42 33 4807
33 1 7621
1 27 4123
27 31 4460
31 25 299
25 11 545
11 45 436
45 52 722
52 15 631
15 36 679
36 46 402
46 39 214
39 16 451
16 10 734
10 22 117
22 29 544
29 21 516
21 23 176
23 53 388
53 17 938
17 48 415
48 49 761
49 19 934
19 41 1369
